p edge 65 190
1 2
1 40
1 18
2 49
2 3
2 12
3 7
3 33
3 4
4 8
4 5
4 60
5 10
5 6
5 32
6 22
6 7
6 57
7 18
7 8
7 30
8 9
8 40
8 26
9 10
9 32
9 46
10 11
10 41
10 4
11 12
11 47
11 50
12 42
12 13
12 1
13 3
13 31
13 14
14 18
14 52
14 15
15 35
15 13
15 16
16 37
16 18
16 17
17 18
17 20
17 34
18 43
18 58
18 19
19 23
19 20
19 24
20 21
20 34
20 3
21 22
21 23
21 36
22 17
22 23
22 64
23 48
23 24
23 36
24 54
24 49
24 25
25 23
25 26
25 15
26 27
26 37
26 21
27 28
27 50
27 40
28 44
28 51
28 29
29 65
29 58
29 30
30 57
30 31
30 58
31 32
31 7
31 50
32 51
32 16
32 33
33 22
33 5
33 34
34 35
34 41
35 39
35 63
35 36
36 37
36 17
37 55
37 27
37 38
38 39
38 34
38 9
39 35
39 40
39 30
40 46
40 41
40 53
41 39
41 53
41 42
42 43
42 62
43 14
43 11
43 44
44 45
44 13
44 11
45 33
45 46
45 16
46 27
46 4
46 47
47 56
47 40
47 48
48 49
48 20
48 59
49 34
49 56
49 50
50 45
50 51
50 63
51 52
51 59
52 49
52 53
52 45
53 36
53 54
54 25
54 55
54 38
55 56
55 6
55 62
56 7
56 38
56 57
57 39
57 58
57 41
58 57
58 59
58 23
59 60
59 36
59 12
60 61
60 19
60 20
61 46
61 41
61 62
62 36
62 63
62 29
63 64
63 46
63 43
64 40
64 13
64 65
65 1
65 4
65 35
